g3 1 1 0	# problem mdm
 2 0 14 0 0 	# vars, constraints, objectives, ranges, eqns
 0 13 0 0 0 0	# nonlinear constrs, objs; ccons: lin, nonlin, nd, nzlb
 0 0	# network constraints: nonlinear, linear
 0 2 0 	# nonlinear vars in constraints, objectives, both
 0 0 0 1	# linear network variables; functions; arith, flags
 0 0 0 0 0 	# discrete variables: binary, integer, nonlinear (b,c,o)
 0 20 	# nonzeros in Jacobian, obj. gradient
 0 0	# max name lengths: constraints, variables
 0 0 0 0 0	# common exprs: b,c,o,c1,o1
O0 0
o0
o54
5
o43
v0
o2
n3
o43
v1
o2
n28.817
o43
o0
o16
o44
o2
n-0.0353756335
v1
n1
o2
n46.951
o43
o0
o16
o44
o2
n-2.7769872306
v1
n1
o2
n31.054
o43
o0
o16
o44
o2
n-8.3132738751
v1
n1
n117.9946064218
O1 0
o5
v0
n-1.0
O2 0
o16
o5
v0
n-2.0
O3 0
o0
o54
4
o2
n3.0
o5
v1
n-1.0
o2
o2
n130.3823274639006
o5
o0
o16
o44
o2
n-2.7769872306
v1
n1.0
n-1.0
o44
o2
n-2.7769872306
v1
o2
o2
n258.1604069173554
o5
o0
o16
o44
o2
n-8.3132738751
v1
n1.0
n-1.0
o44
o2
n-8.3132738751
v1
o2
o2
n1.0194196305695
o5
o0
o16
o44
o2
n-0.0353756335
v1
n1.0
n-1.0
o44
o2
n-0.0353756335
v1
n-19.6600754238
O4 0
o54
7
o2
n-3.0
o5
v1
n-2.0
o2
o2
n-362.0700584631596
o5
o0
o16
o44
o2
n-2.7769872306
v1
n1.0
n-1.0
o44
o2
n-2.7769872306
v1
o2
o2
n-362.0700584631596
o5
o0
o16
o44
o2
n-2.7769872306
v1
n1.0
n-2.0
o44
o2
n-5.5539744612
v1
o2
o2
n-2146.158166411236
o5
o0
o16
o44
o2
n-8.3132738751
v1
n1.0
n-1.0
o44
o2
n-8.3132738751
v1
o2
o2
n-2146.158166411236
o5
o0
o16
o44
o2
n-8.3132738751
v1
n1.0
n-2.0
o44
o2
n-16.6265477502
v1
o2
o2
n-0.03606261523373203
o5
o0
o16
o44
o2
n-0.0353756335
v1
n1.0
n-1.0
o44
o2
n-0.0353756335
v1
o2
o2
n-0.03606261523373203
o5
o0
o16
o44
o2
n-0.0353756335
v1
n1.0
n-2.0
o44
o2
n-0.070751267
v1
O5 0
o54
15
o2
o2
n0.05039724
o5
v0
n4.0
v1
o2
o2
n1.189992
v0
o5
v1
n0.188
o2
o2
n-2.468723
v0
o5
v1
n1.03
o2
o2
n-0.743856
o5
v0
n2.0
o5
v1
n0.7
o2
o2
n0.4434056
o5
v0
n3.0
o5
v1
n0.464
o2
o2
o2
n-1.371359
v0
o5
v1
n2.105
o44
o16
o5
v0
n2.0
o2
o2
o2
n-1.529621
o5
v0
n3.0
o5
v1
n1.376
o44
o16
o5
v0
n2.0
o2
o2
o2
n0.4445898
o5
v0
n2.0
o5
v1
n0.8
o44
o2
n-1.0
v0
o2
o2
o2
n-1.009921
o5
v0
n2.0
o5
v1
n1.8
o44
o16
o5
v0
n2.0
o2
o2
o2
n-0.05903694
o5
v0
n7.0
o5
v1
n1.005
o44
o2
n-1.0
v0
o2
o2
o2
n3.515188
v0
o5
v1
n0.7
o44
o0
o2
n-0.986
o5
o0
v0
n-0.928
n2
o2
n-0.966
o5
o0
v1
n-1.25
n2
o2
o2
o2
n0.08367608
v0
o5
v1
n0.66
o44
o0
o2
n-1.715
o5
o0
v0
n-2.081
n2
o2
n-0.237
o5
o0
v1
n-1.438
n2
o2
o2
o2
n1.646856
o5
v0
n3.0
o5
v1
n1.138
o44
o0
o2
n-0.837
o5
o0
v0
n-0.282
n2
o2
n-0.954
o5
o0
v1
n-0.894
n2
o2
o2
o2
n-0.2851917
o5
v0
n2.0
o5
v1
n1.56
o44
o0
o2
n-1.312
o5
o0
v0
n-1.496
n2
o2
n-0.861
o5
o0
v1
n-0.9
n2
o2
o2
o2
n-2.457571
o5
v0
n2.0
o5
v1
n1.31
o44
o0
o2
n-1.191
o5
o0
v0
n-0.805
n2
o2
n-0.909
o5
o0
v1
n-0.899
n2
O6 0
o54
25
o2
n1.189992
o5
v1
n0.188
o2
n-2.468723
o5
v1
n1.03
o2
o2
n3.515188
o5
v1
n0.7
o44
o0
o2
n-0.966
o5
o0
v1
n-1.25
n2.0
o2
n-0.986
o5
o0
v0
n-0.928
n2.0
o2
o2
n1.3302168
o5
v0
n2.0
o5
v1
n0.464
o2
o2
n0.08367608
o5
v1
n0.66
o44
o0
o2
n-0.237
o5
o0
v1
n-1.438
n2.0
o2
n-1.715
o5
o0
v0
n-2.081
n2.0
o2
o2
n0.20158896
v1
o5
v0
n3.0
o2
o2
n-1.371359
o5
v1
n2.105
o44
o16
o5
v0
n2.0
o2
o2
n-1.487712
v0
o5
v1
n0.7
o2
o2
o2
n2.742718
o5
v0
n2.0
o5
v1
n2.105
o44
o16
o5
v0
n2.0
o2
o2
o2
n4.940568000000001
o5
v0
n2.0
o5
v1
n1.138
o44
o0
o2
n-0.837
o5
o0
v0
n-0.282
n2.0
o2
n-0.954
o5
o0
v1
n-0.894
n2.0
o2
o2
o2
n2.019842
o5
v0
n3.0
o5
v1
n1.8
o44
o16
o5
v0
n2.0
o2
o2
o2
n3.059242
o5
v0
n4.0
o5
v1
n1.376
o44
o16
o5
v0
n2.0
o2
o2
o2
n0.8891796
v0
o5
v1
n0.8
o44
o2
n-1.0
v0
o2
o2
o2
n0.05903694
o5
v0
n7.0
o5
v1
n1.005
o44
o2
n-1.0
v0
o2
o2
o2
n-4.588863
o5
v0
n2.0
o5
v1
n1.376
o44
o16
o5
v0
n2.0
o2
o2
o2
n-0.41325858000000004
o5
v0
n6.0
o5
v1
n1.005
o44
o2
n-1.0
v0
o2
o2
o2
n-2.019842
v0
o5
v1
n1.8
o44
o16
o5
v0
n2.0
o2
o2
o2
n-0.5703834
v0
o5
v1
n1.56
o44
o0
o2
n-0.861
o5
o0
v1
n-0.9
n2.0
o2
n-1.312
o5
o0
v0
n-1.496
n2.0
o2
o2
o2
n-4.915142
v0
o5
v1
n1.31
o44
o0
o2
n-0.909
o5
o0
v1
n-0.899
n2.0
o2
n-1.191
o5
o0
v0
n-0.805
n2.0
o2
o2
o2
n-0.4445898
o5
v0
n2.0
o5
v1
n0.8
o44
o2
n-1.0
v0
o2
o2
o2
o2
n3.515188
v0
o5
v1
n0.7
o0
o2
n-1.972
v0
n1.830016
o44
o0
o2
n-0.966
o5
o0
v1
n-1.25
n2.0
o2
n-0.986
o5
o0
v0
n-0.928
n2.0
o2
o2
o2
o2
n1.646856
o5
v0
n3.0
o5
v1
n1.138
o0
o2
n-1.674
v0
n0.47206799999999993
o44
o0
o2
n-0.837
o5
o0
v0
n-0.282
n2.0
o2
n-0.954
o5
o0
v1
n-0.894
n2.0
o2
o2
o2
o2
n0.08367608
v0
o5
v1
n0.66
o0
o2
n-3.43
v0
n7.13783
o44
o0
o2
n-0.237
o5
o0
v1
n-1.438
n2.0
o2
n-1.715
o5
o0
v0
n-2.081
n2.0
o2
o2
o2
o2
n-0.2851917
o5
v0
n2.0
o5
v1
n1.56
o0
o2
n-2.624
v0
n3.925504
o44
o0
o2
n-0.861
o5
o0
v1
n-0.9
n2.0
o2
n-1.312
o5
o0
v0
n-1.496
n2.0
o2
o2
o2
o2
n-2.457571
o5
v0
n2.0
o5
v1
n1.31
o0
o2
n-2.382
v0
n1.9175100000000003
o44
o0
o2
n-0.909
o5
o0
v1
n-0.899
n2.0
o2
n-1.191
o5
o0
v0
n-0.805
n2.0
O7 0
o54
41
o2
n-1.487712
o5
v1
n0.7
o2
o2
n2.6604336
o5
v1
n0.464
v0
o2
o2
n0.60476688
v1
o5
v0
n2.0
o2
o2
n0.8891796
o5
v1
n0.8
o44
o2
n-1.0
v0
o2
o2
n-2.019842
o5
v1
n1.8
o44
o16
o5
v0
n2.0
o2
o2
n-0.5703834
o5
v1
n1.56
o44
o0
o2
n-0.861
o5
o0
v1
n-0.9
n2.0
o2
n-1.312
o5
o0
v0
n-1.496
n2.0
o2
o2
n-4.915142
o5
v1
n1.31
o44
o0
o2
n-0.909
o5
o0
v1
n-0.899
n2.0
o2
n-1.191
o5
o0
v0
n-0.805
n2.0
o2
o2
o2
n10.09921
o5
v1
n1.8
o5
v0
n2.0
o44
o16
o5
v0
n2.0
o2
o2
o2
n21.414693999999997
o5
v1
n1.376
o5
v0
n3.0
o44
o16
o5
v0
n2.0
o2
o2
o2
n3.515188
o5
v1
n0.7
o0
o2
n-1.972
v0
n1.830016
o44
o0
o2
n-0.966
o5
o0
v1
n-1.25
n2.0
o2
n-0.986
o5
o0
v0
n-0.928
n2.0
o2
o2
o2
n8.228154
o5
v1
n2.105
v0
o44
o16
o5
v0
n2.0
o2
o2
o2
n9.881136000000001
o5
v1
n1.138
v0
o44
o0
o2
n-0.837
o5
o0
v0
n-0.282
n2.0
o2
n-0.954
o5
o0
v1
n-0.894
n2.0
o2
o2
o2
n0.8265171600000001
o5
v1
n1.005
o5
v0
n6.0
o44
o2
n-1.0
v0
o2
o2
o2
n0.08367608
o5
v1
n0.66
o0
o2
n-3.43
v0
n7.13783
o44
o0
o2
n-0.237
o5
o0
v1
n-1.438
n2.0
o2
n-1.715
o5
o0
v0
n-2.081
n2.0
o2
o2
o2
n5.853934122000001
o5
v1
n1.31
o5
v0
n2.0
o44
o0
o2
n-0.909
o5
o0
v1
n-0.899
n2.0
o2
n-1.191
o5
o0
v0
n-0.805
n2.0
o2
o2
o2
n0.7483430208
o5
v1
n1.56
o5
v0
n2.0
o44
o0
o2
n-0.861
o5
o0
v1
n-0.9
n2.0
o2
n-1.312
o5
o0
v0
n-1.496
n2.0
o2
o2
o2
n0.4445898
o5
v1
n0.8
o5
v0
n2.0
o44
o2
n-1.0
v0
o2
o2
o2
n-5.485436
o5
v1
n2.105
o5
v0
n3.0
o44
o16
o5
v0
n2.0
o2
o2
o2
n-9.177726
o5
v1
n1.376
v0
o44
o16
o5
v0
n2.0
o2
o2
o2
n-2.4795514800000005
o5
v1
n1.005
o5
v0
n5.0
o44
o2
n-1.0
v0
o2
o2
o2
n-4.039684
o5
v1
n1.8
o5
v0
n4.0
o44
o16
o5
v0
n2.0
o2
o2
o2
n-0.2870089544
v0
o5
v1
n0.66
o44
o0
o2
n-0.237
o5
o0
v1
n-1.438
n2.0
o2
n-1.715
o5
o0
v0
n-2.081
n2.0
o2
o2
o2
n-0.2870089544
o5
v1
n0.66
o0
v0
n-2.081
o44
o0
o2
n-0.237
o5
o0
v1
n-1.438
n2.0
o2
n-1.715
o5
o0
v0
n-2.081
n2.0
o2
o2
o2
n-2.7568369440000002
o5
v1
n1.138
o5
v0
n3.0
o44
o0
o2
n-0.837
o5
o0
v0
n-0.282
n2.0
o2
n-0.954
o5
o0
v1
n-0.894
n2.0
o2
o2
o2
n-6.118484
o5
v1
n1.376
o5
v0
n5.0
o44
o16
o5
v0
n2.0
o2
o2
o2
n-6.931950736
v0
o5
v1
n0.7
o44
o0
o2
n-0.966
o5
o0
v1
n-1.25
n2.0
o2
n-0.986
o5
o0
v0
n-0.928
n2.0
o2
o2
o2
n-6.931950736
o5
v1
n0.7
o0
v0
n-0.928
o44
o0
o2
n-0.966
o5
o0
v1
n-1.25
n2.0
o2
n-0.986
o5
o0
v0
n-0.928
n2.0
o2
o2
o2
n-0.8891796
v0
o5
v1
n0.8
o44
o2
n-1.0
v0
o2
o2
o2
n-0.8891796
o5
v1
n0.8
v0
o44
o2
n-1.0
v0
o2
o2
o2
n-0.05903694
o5
v1
n1.005
o5
v0
n7.0
o44
o2
n-1.0
v0
o2
o2
o2
o2
n4.940568000000001
o5
v1
n1.138
o5
v0
n2.0
o0
o2
n-1.674
v0
n0.47206799999999993
o44
o0
o2
n-0.837
o5
o0
v0
n-0.282
n2.0
o2
n-0.954
o5
o0
v1
n-0.894
n2.0
o2
o2
o2
o2
n11.707868244000002
v0
o5
v1
n1.31
o0
v0
n-0.805
o44
o0
o2
n-0.909
o5
o0
v1
n-0.899
n2.0
o2
n-1.191
o5
o0
v0
n-0.805
n2.0
o2
o2
o2
o2
n1.4966860416
v0
o5
v1
n1.56
o0
v0
n-1.496
o44
o0
o2
n-0.861
o5
o0
v1
n-0.9
n2.0
o2
n-1.312
o5
o0
v0
n-1.496
n2.0
o2
o2
o2
o2
n-8.270510832000001
o5
v1
n1.138
o5
v0
n2.0
o0
v0
n-0.282
o44
o0
o2
n-0.837
o5
o0
v0
n-0.282
n2.0
o2
n-0.954
o5
o0
v1
n-0.894
n2.0
o2
o2
o2
o2
n-0.5703834
o5
v1
n1.56
v0
o0
o2
n-2.624
v0
n3.925504
o44
o0
o2
n-0.861
o5
o0
v1
n-0.9
n2.0
o2
n-1.312
o5
o0
v0
n-1.496
n2.0
o2
o2
o2
o2
n-4.915142
o5
v1
n1.31
v0
o0
o2
n-2.382
v0
n1.9175100000000003
o44
o0
o2
n-0.909
o5
o0
v1
n-0.899
n2.0
o2
n-1.191
o5
o0
v0
n-0.805
n2.0
o2
o2
o2
o2
o2
n5.853934122000001
o5
v1
n1.31
o5
v0
n2.0
o0
v0
n-0.805
o0
o2
n-2.382
v0
n1.9175100000000003
o44
o0
o2
n-0.909
o5
o0
v1
n-0.899
n2.0
o2
n-1.191
o5
o0
v0
n-0.805
n2.0
o2
o2
o2
o2
o2
n0.7483430208
o5
v1
n1.56
o5
v0
n2.0
o0
v0
n-1.496
o0
o2
n-2.624
v0
n3.925504
o44
o0
o2
n-0.861
o5
o0
v1
n-0.9
n2.0
o2
n-1.312
o5
o0
v0
n-1.496
n2.0
o2
o2
o2
o2
o2
n-0.2870089544
v0
o5
v1
n0.66
o0
v0
n-2.081
o0
o2
n-3.43
v0
n7.13783
o44
o0
o2
n-0.237
o5
o0
v1
n-1.438
n2.0
o2
n-1.715
o5
o0
v0
n-2.081
n2.0
o2
o2
o2
o2
o2
n-2.7568369440000002
o5
v1
n1.138
o5
v0
n3.0
o0
v0
n-0.282
o0
o2
n-1.674
v0
n0.47206799999999993
o44
o0
o2
n-0.837
o5
o0
v0
n-0.282
n2.0
o2
n-0.954
o5
o0
v1
n-0.894
n2.0
o2
o2
o2
o2
o2
n-6.931950736
v0
o5
v1
n0.7
o0
v0
n-0.928
o0
o2
n-1.972
v0
n1.830016
o44
o0
o2
n-0.966
o5
o0
v1
n-1.25
n2.0
o2
n-0.986
o5
o0
v0
n-0.928
n2.0
O8 0
o54
20
o2
n0.05039724
o5
v0
n4.0
o2
o2
n0.20574019840000002
o5
v0
n3.0
o5
v1
n-0.536
o2
o2
n0.223718496
v0
o5
v1
n-0.812
o2
o2
n-0.5206991999999999
o5
v0
n2.0
o5
v1
n-0.30000000000000004
o2
o2
n-2.54278469
v0
o5
v1
n0.030000000000000027
o2
o2
o2
n2.4606316
v0
o5
v1
n-0.30000000000000004
o44
o0
o2
n-0.966
o5
o0
v1
n-1.25
n2.0
o2
n-0.986
o5
o0
v0
n-0.928
n2.0
o2
o2
o2
n0.35567184
o5
v0
n2.0
o5
v1
n-0.19999999999999996
o44
o2
n-1.0
v0
o2
o2
o2
n0.0552262128
v0
o5
v1
n-0.33999999999999997
o44
o0
o2
n-0.237
o5
o0
v1
n-1.438
n2.0
o2
n-1.715
o5
o0
v0
n-2.081
n2.0
o2
o2
o2
n1.874122128
o5
v0
n3.0
o5
v1
n0.1379999999999999
o44
o0
o2
n-0.837
o5
o0
v0
n-0.282
n2.0
o2
n-0.954
o5
o0
v1
n-0.894
n2.0
o2
o2
o2
n-0.444899052
o5
v0
n2.0
o5
v1
n0.56
o44
o0
o2
n-0.861
o5
o0
v1
n-0.9
n2.0
o2
n-1.312
o5
o0
v0
n-1.496
n2.0
o2
o2
o2
n-2.1047584959999996
o5
v0
n3.0
o5
v1
n0.3759999999999999
o44
o16
o5
v0
n2.0
o2
o2
o2
n-1.8178578
o5
v0
n2.0
o5
v1
n0.8
o44
o16
o5
v0
n2.0
o2
o2
o2
n-2.886710695
v0
o5
v1
n1.105
o44
o16
o5
v0
n2.0
o2
o2
o2
n-3.2194180100000005
o5
v0
n2.0
o5
v1
n0.31000000000000005
o44
o0
o2
n-0.909
o5
o0
v1
n-0.899
n2.0
o2
n-1.191
o5
o0
v0
n-0.805
n2.0
o2
o2
o2
n-0.059332124699999995
o5
v0
n7.0
o5
v1
n0.004999999999999893
o44
o2
n-1.0
v0
o2
o2
o2
o2
n3.515188
v0
o5
v1
n0.7
o0
o2
n-1.932
v1
n2.415
o44
o0
o2
n-0.966
o5
o0
v1
n-1.25
n2.0
o2
n-0.986
o5
o0
v0
n-0.928
n2.0
o2
o2
o2
o2
n1.646856
o5
v0
n3.0
o5
v1
n1.138
o0
o2
n-1.908
v1
n1.705752
o44
o0
o2
n-0.837
o5
o0
v0
n-0.282
n2.0
o2
n-0.954
o5
o0
v1
n-0.894
n2.0
o2
o2
o2
o2
n0.08367608
v0
o5
v1
n0.66
o0
o2
n-0.474
v1
n0.681612
o44
o0
o2
n-0.237
o5
o0
v1
n-1.438
n2.0
o2
n-1.715
o5
o0
v0
n-2.081
n2.0
o2
o2
o2
o2
n-0.2851917
o5
v0
n2.0
o5
v1
n1.56
o0
o2
n-1.722
v1
n1.5498
o44
o0
o2
n-0.861
o5
o0
v1
n-0.9
n2.0
o2
n-1.312
o5
o0
v0
n-1.496
n2.0
o2
o2
o2
o2
n-2.457571
o5
v0
n2.0
o5
v1
n1.31
o0
o2
n-1.818
v1
n1.634382
o44
o0
o2
n-0.909
o5
o0
v1
n-0.899
n2.0
o2
n-1.191
o5
o0
v0
n-0.805
n2.0
O9 0
o54
34
o2
o2
n0.15620976
o5
v0
n2.0
o5
v1
n-1.3
o2
o2
n-0.07628354070000007
v0
o5
v1
n-0.97
o2
o2
n-0.181659418752
v0
o5
v1
n-1.812
o2
o2
n-0.11027674634240002
o5
v0
n3.0
o5
v1
n-1.536
o2
o2
o2
n0.2586288536639998
o5
v0
n3.0
o5
v1
n-0.8620000000000001
o44
o0
o2
n-0.837
o5
o0
v0
n-0.282
n2.0
o2
n-0.954
o5
o0
v1
n-0.894
n2.0
o2
o2
o2
n0.4911001074
o5
v0
n2.0
o5
v1
n1.56
o44
o0
o2
n-0.861
o5
o0
v1
n-0.9
n2.0
o2
n-1.312
o5
o0
v0
n-1.496
n2.0
o2
o2
o2
n4.467864078000001
o5
v0
n2.0
o5
v1
n1.31
o44
o0
o2
n-0.909
o5
o0
v1
n-0.899
n2.0
o2
n-1.191
o5
o0
v0
n-0.805
n2.0
o2
o2
o2
n-0.00029666062349999363
o5
v0
n7.0
o5
v1
n-0.9950000000000001
o44
o2
n-1.0
v0
o2
o2
o2
n-1.45428624
o5
v0
n2.0
o5
v1
n-0.19999999999999996
o44
o16
o5
v0
n2.0
o2
o2
o2
n-0.018776912352
v0
o5
v1
n-1.3399999999999999
o44
o0
o2
n-0.237
o5
o0
v1
n-1.438
n2.0
o2
n-1.715
o5
o0
v0
n-2.081
n2.0
o2
o2
o2
n-0.7381894800000002
v0
o5
v1
n-1.3
o44
o0
o2
n-0.966
o5
o0
v1
n-1.25
n2.0
o2
n-0.986
o5
o0
v0
n-0.928
n2.0
o2
o2
o2
n-3.142201248
o5
v0
n3.0
o5
v1
n1.138
o44
o0
o2
n-0.837
o5
o0
v0
n-0.282
n2.0
o2
n-0.954
o5
o0
v1
n-0.894
n2.0
o2
o2
o2
n-0.7913891944959996
o5
v0
n3.0
o5
v1
n-0.6240000000000001
o44
o16
o5
v0
n2.0
o2
o2
o2
n-0.9980195831000003
o5
v0
n2.0
o5
v1
n-0.69
o44
o0
o2
n-0.909
o5
o0
v1
n-0.899
n2.0
o2
n-1.191
o5
o0
v0
n-0.805
n2.0
o2
o2
o2
n-0.07113436799999999
o5
v0
n2.0
o5
v1
n-1.2
o44
o2
n-1.0
v0
o2
o2
o2
n-0.039662461919999996
v0
o5
v1
n0.66
o44
o0
o2
n-0.237
o5
o0
v1
n-1.438
n2.0
o2
n-1.715
o5
o0
v0
n-2.081
n2.0
o2
o2
o2
n-3.189815317975
v0
o5
v1
n0.10499999999999998
o44
o16
o5
v0
n2.0
o2
o2
o2
n-6.7913432160000005
v0
o5
v1
n0.7
o44
o0
o2
n-0.966
o5
o0
v1
n-1.25
n2.0
o2
n-0.986
o5
o0
v0
n-0.928
n2.0
o2
o2
o2
n-0.24914346912000004
o5
v0
n2.0
o5
v1
n-0.43999999999999995
o44
o0
o2
n-0.861
o5
o0
v1
n-0.9
n2.0
o2
n-1.312
o5
o0
v0
n-1.496
n2.0
o2
o2
o2
o2
n5.852901942180001
o5
v0
n2.0
o5
v1
n0.31000000000000005
o0
v1
n-0.899
o44
o0
o2
n-0.909
o5
o0
v1
n-0.899
n2.0
o2
n-1.191
o5
o0
v0
n-0.805
n2.0
o2
o2
o2
o2
n2.4606316
v0
o5
v1
n-0.30000000000000004
o0
o2
n-1.932
v1
n2.415
o44
o0
o2
n-0.966
o5
o0
v1
n-1.25
n2.0
o2
n-0.986
o5
o0
v0
n-0.928
n2.0
o2
o2
o2
o2
n0.766116167544
o5
v0
n2.0
o5
v1
n0.56
o0
v1
n-0.9
o44
o0
o2
n-0.861
o5
o0
v1
n-0.9
n2.0
o2
n-1.312
o5
o0
v0
n-1.496
n2.0
o2
o2
o2
o2
n0.0552262128
v0
o5
v1
n-0.33999999999999997
o0
o2
n-0.474
v1
n0.681612
o44
o0
o2
n-0.237
o5
o0
v1
n-1.438
n2.0
o2
n-1.715
o5
o0
v0
n-2.081
n2.0
o2
o2
o2
o2
n1.874122128
o5
v0
n3.0
o5
v1
n0.1379999999999999
o0
o2
n-1.908
v1
n1.705752
o44
o0
o2
n-0.837
o5
o0
v0
n-0.282
n2.0
o2
n-0.954
o5
o0
v1
n-0.894
n2.0
o2
o2
o2
o2
n-0.444899052
o5
v0
n2.0
o5
v1
n0.56
o0
o2
n-1.722
v1
n1.5498
o44
o0
o2
n-0.861
o5
o0
v1
n-0.9
n2.0
o2
n-1.312
o5
o0
v0
n-1.496
n2.0
o2
o2
o2
o2
n-0.026177224867199998
v0
o5
v1
n-0.33999999999999997
o0
v1
n-1.438
o44
o0
o2
n-0.237
o5
o0
v1
n-1.438
n2.0
o2
n-1.715
o5
o0
v0
n-2.081
n2.0
o2
o2
o2
o2
n-4.7539402512
v0
o5
v1
n-0.30000000000000004
o0
v1
n-1.25
o44
o0
o2
n-0.966
o5
o0
v1
n-1.25
n2.0
o2
n-0.986
o5
o0
v0
n-0.928
n2.0
o2
o2
o2
o2
n-3.2194180100000005
o5
v0
n2.0
o5
v1
n0.31000000000000005
o0
o2
n-1.818
v1
n1.634382
o44
o0
o2
n-0.909
o5
o0
v1
n-0.899
n2.0
o2
n-1.191
o5
o0
v0
n-0.805
n2.0
o2
o2
o2
o2
n-3.575825020224
o5
v0
n3.0
o5
v1
n0.1379999999999999
o0
v1
n-0.894
o44
o0
o2
n-0.837
o5
o0
v0
n-0.282
n2.0
o2
n-0.954
o5
o0
v1
n-0.894
n2.0
o2
o2
o2
o2
o2
n0.4911001074
o5
v0
n2.0
o5
v1
n1.56
o0
v1
n-0.9
o0
o2
n-1.722
v1
n1.5498
o44
o0
o2
n-0.861
o5
o0
v1
n-0.9
n2.0
o2
n-1.312
o5
o0
v0
n-1.496
n2.0
o2
o2
o2
o2
o2
n4.467864078000001
o5
v0
n2.0
o5
v1
n1.31
o0
v1
n-0.899
o0
o2
n-1.818
v1
n1.634382
o44
o0
o2
n-0.909
o5
o0
v1
n-0.899
n2.0
o2
n-1.191
o5
o0
v0
n-0.805
n2.0
o2
o2
o2
o2
o2
n-3.142201248
o5
v0
n3.0
o5
v1
n1.138
o0
v1
n-0.894
o0
o2
n-1.908
v1
n1.705752
o44
o0
o2
n-0.837
o5
o0
v0
n-0.282
n2.0
o2
n-0.954
o5
o0
v1
n-0.894
n2.0
o2
o2
o2
o2
o2
n-0.039662461919999996
v0
o5
v1
n0.66
o0
v1
n-1.438
o0
o2
n-0.474
v1
n0.681612
o44
o0
o2
n-0.237
o5
o0
v1
n-1.438
n2.0
o2
n-1.715
o5
o0
v0
n-2.081
n2.0
o2
o2
o2
o2
o2
n-6.7913432160000005
v0
o5
v1
n0.7
o0
v1
n-1.25
o0
o2
n-1.932
v1
n2.415
o44
o0
o2
n-0.966
o5
o0
v1
n-1.25
n2.0
o2
n-0.986
o5
o0
v0
n-0.928
n2.0
O10 0
o54
35
o2
n0.223718496
o5
v1
n-0.812
o2
n0.20158896
o5
v0
n3.0
o2
n-2.54278469
o5
v1
n0.030000000000000027
o2
o2
n0.6172205952
o5
v1
n-0.536
o5
v0
n2.0
o2
o2
n2.4606316
o5
v1
n-0.30000000000000004
o44
o0
o2
n-0.966
o5
o0
v1
n-1.25
n2.0
o2
n-0.986
o5
o0
v0
n-0.928
n2.0
o2
o2
n0.0552262128
o5
v1
n-0.33999999999999997
o44
o0
o2
n-0.237
o5
o0
v1
n-1.438
n2.0
o2
n-1.715
o5
o0
v0
n-2.081
n2.0
o2
o2
n-1.0413983999999998
v0
o5
v1
n-0.30000000000000004
o2
o2
n-2.886710695
o5
v1
n1.105
o44
o16
o5
v0
n2.0
o2
o2
o2
n4.209516991999999
o5
v1
n0.3759999999999999
o5
v0
n4.0
o44
o16
o5
v0
n2.0
o2
o2
o2
n3.6357156
o5
v1
n0.8
o5
v0
n3.0
o44
o16
o5
v0
n2.0
o2
o2
o2
n5.622366384
o5
v1
n0.1379999999999999
o5
v0
n2.0
o44
o0
o2
n-0.837
o5
o0
v0
n-0.282
n2.0
o2
n-0.954
o5
o0
v1
n-0.894
n2.0
o2
o2
o2
n0.71134368
v0
o5
v1
n-0.19999999999999996
o44
o2
n-1.0
v0
o2
o2
o2
n5.77342139
o5
v1
n1.105
o5
v0
n2.0
o44
o16
o5
v0
n2.0
o2
o2
o2
n0.059332124699999995
o5
v1
n0.004999999999999893
o5
v0
n7.0
o44
o2
n-1.0
v0
o2
o2
o2
n-0.889798104
v0
o5
v1
n0.56
o44
o0
o2
n-0.861
o5
o0
v1
n-0.9
n2.0
o2
n-1.312
o5
o0
v0
n-1.496
n2.0
o2
o2
o2
n-0.4153248729
o5
v1
n0.004999999999999893
o5
v0
n6.0
o44
o2
n-1.0
v0
o2
o2
o2
n-3.6357156
v0
o5
v1
n0.8
o44
o16
o5
v0
n2.0
o2
o2
o2
n-0.039662461919999996
o5
v1
n0.66
o0
v1
n-1.438
o44
o0
o2
n-0.237
o5
o0
v1
n-1.438
n2.0
o2
n-1.715
o5
o0
v0
n-2.081
n2.0
o2
o2
o2
n-0.35567184
o5
v1
n-0.19999999999999996
o5
v0
n2.0
o44
o2
n-1.0
v0
o2
o2
o2
n-6.314275487999999
o5
v1
n0.3759999999999999
o5
v0
n2.0
o44
o16
o5
v0
n2.0
o2
o2
o2
n-6.438836020000001
v0
o5
v1
n0.31000000000000005
o44
o0
o2
n-0.909
o5
o0
v1
n-0.899
n2.0
o2
n-1.191
o5
o0
v0
n-0.805
n2.0
o2
o2
o2
n-6.7913432160000005
o5
v1
n0.7
o0
v1
n-1.25
o44
o0
o2
n-0.966
o5
o0
v1
n-1.25
n2.0
o2
n-0.986
o5
o0
v0
n-0.928
n2.0
o2
o2
o2
o2
n2.4606316
v0
o5
v1
n-0.30000000000000004
o0
o2
n-1.972
v0
n1.830016
o44
o0
o2
n-0.966
o5
o0
v1
n-1.25
n2.0
o2
n-0.986
o5
o0
v0
n-0.928
n2.0
o2
o2
o2
o2
n0.9822002148
v0
o5
v1
n1.56
o0
v1
n-0.9
o44
o0
o2
n-0.861
o5
o0
v1
n-0.9
n2.0
o2
n-1.312
o5
o0
v0
n-1.496
n2.0
o2
o2
o2
o2
n8.935728156000001
v0
o5
v1
n1.31
o0
v1
n-0.899
o44
o0
o2
n-0.909
o5
o0
v1
n-0.899
n2.0
o2
n-1.191
o5
o0
v0
n-0.805
n2.0
o2
o2
o2
o2
n0.0552262128
v0
o5
v1
n-0.33999999999999997
o0
o2
n-3.43
v0
n7.13783
o44
o0
o2
n-0.237
o5
o0
v1
n-1.438
n2.0
o2
n-1.715
o5
o0
v0
n-2.081
n2.0
o2
o2
o2
o2
n1.874122128
o5
v1
n0.1379999999999999
o5
v0
n3.0
o0
o2
n-1.674
v0
n0.47206799999999993
o44
o0
o2
n-0.837
o5
o0
v0
n-0.282
n2.0
o2
n-0.954
o5
o0
v1
n-0.894
n2.0
o2
o2
o2
o2
n-0.444899052
o5
v1
n0.56
o5
v0
n2.0
o0
o2
n-2.624
v0
n3.925504
o44
o0
o2
n-0.861
o5
o0
v1
n-0.9
n2.0
o2
n-1.312
o5
o0
v0
n-1.496
n2.0
o2
o2
o2
o2
n-9.426603744000001
o5
v1
n1.138
o5
v0
n2.0
o0
v1
n-0.894
o44
o0
o2
n-0.837
o5
o0
v0
n-0.282
n2.0
o2
n-0.954
o5
o0
v1
n-0.894
n2.0
o2
o2
o2
o2
n-3.2194180100000005
o5
v1
n0.31000000000000005
o5
v0
n2.0
o0
o2
n-2.382
v0
n1.9175100000000003
o44
o0
o2
n-0.909
o5
o0
v1
n-0.899
n2.0
o2
n-1.191
o5
o0
v0
n-0.805
n2.0
o2
o2
o2
o2
o2
n0.4911001074
o5
v1
n1.56
o5
v0
n2.0
o0
v1
n-0.9
o0
o2
n-2.624
v0
n3.925504
o44
o0
o2
n-0.861
o5
o0
v1
n-0.9
n2.0
o2
n-1.312
o5
o0
v0
n-1.496
n2.0
o2
o2
o2
o2
o2
n4.467864078000001
o5
v1
n1.31
o5
v0
n2.0
o0
v1
n-0.899
o0
o2
n-2.382
v0
n1.9175100000000003
o44
o0
o2
n-0.909
o5
o0
v1
n-0.899
n2.0
o2
n-1.191
o5
o0
v0
n-0.805
n2.0
o2
o2
o2
o2
o2
n-3.142201248
o5
v1
n1.138
o5
v0
n3.0
o0
v1
n-0.894
o0
o2
n-1.674
v0
n0.47206799999999993
o44
o0
o2
n-0.837
o5
o0
v0
n-0.282
n2.0
o2
n-0.954
o5
o0
v1
n-0.894
n2.0
o2
o2
o2
o2
o2
n-0.039662461919999996
v0
o5
v1
n0.66
o0
v1
n-1.438
o0
o2
n-3.43
v0
n7.13783
o44
o0
o2
n-0.237
o5
o0
v1
n-1.438
n2.0
o2
n-1.715
o5
o0
v0
n-2.081
n2.0
o2
o2
o2
o2
o2
n-6.7913432160000005
v0
o5
v1
n0.7
o0
v1
n-1.25
o0
o2
n-1.972
v0
n1.830016
o44
o0
o2
n-0.966
o5
o0
v1
n-1.25
n2.0
o2
n-0.986
o5
o0
v0
n-0.928
n2.0
O11 0
o0
o54
6
o2
n-11.661808432707899
o5
o0
o16
o3
n1
v1
n1
n0.063
o2
n39.326450130867855
o5
o0
o16
o3
n1
v1
n1
n0.099
o2
n-29.207152495378672
o5
o0
o16
o3
n1
v1
n1
n0.124
o2
n4.307541571000037
o5
o0
o16
o3
n1
v1
n1
n0.3635
o2
n0.47384355752796403
o5
o0
o16
o3
n1
v1
n1
n1.8333333333333333
o2
n0.16238276893489217
o5
o0
o16
o3
n1
v1
n1
n5.5
n1.0
O12 0
o44
o2
v1
o54
6
o2
n-0.3270142417758467
o5
o0
o16
o3
n1
v1
n1
n0.078
o2
n294.60929696654046
o5
o0
o16
o3
n1
v1
n1
n0.3605
o2
n-298.8182684075387
o5
o0
o16
o3
n1
v1
n1
n0.3625
o2
n-4.063925036934722
o5
o0
o16
o3
n1
v1
n1
n1.6666666666666667
o2
n2.5914174030569055
o5
o0
o16
o3
n1
v1
n1
n2.3333333333333335
o2
n-9.077277840392275
o5
o0
o16
o3
n1
v1
n1
n3.5
O13 0
n0.0
x2
0 1.00000001
1 1.0
r
b
3
3
k1
0
G0 2
0 0
1 -19.6600754238
G1 1
0 0
G2 1
0 0
G3 1
1 0
G4 1
1 0
G5 2
0 0
1 0
G6 2
0 0
1 0
G7 2
0 0
1 0
G8 2
0 0
1 0
G9 2
0 0
1 0
G10 2
0 0
1 0
G11 1
1 0
G12 1
1 0
